language Essence 1.3

letting class be function(1 --> 1, 2 --> 1, 3 --> 1, 4 --> 1)
letting deck_length be 15
letting deck_width be 49
letting length be function(1 --> 6, 2 --> 3, 3 --> 6, 4 --> 13)
letting n_classes be 1
letting n_containers be 4
letting separation be function()
letting width be function(1 --> 5, 2 --> 46, 3 --> 5, 4 --> 3)
